5 5
0 25 2 91 3 45 4 96 1 12
2 4 4 90 1 67 0 17 3 73
1 93 3 65 0 82 2 53 4 84
1 57 2 98 4 28 3 99 0 16
0 21 2 77 3 99 4 42 1 54
-1
0 1 4 5
0 1 3 5
0 1 2 4 5
0 1 2 5
0 2 3 4 5
-2
38 367 337
4 213 324
114 161 363 584
78 233 361
135 259 286 465

490 8
0 20 12 8 19
10 7 15 4 24
5 1 21 16 13
11 2 22 9 18
6 3 23 17 14
